2144624
0,2,225,207,176,41,197,164,138,57,46,213,142,114,131,181,84,113,172,60,122,130,187,180,121,72,59,166,50,208,85,97,44,102,186,149,185,170,169,168,80,228,132,154,111,70,66,73,6,139,134,48,117,126,38,188,175,90,8,178,36,33,129,39,128,152,202,103,81,157,11,94,79,179,174,91,221,218,203,190,148,1,58,211,212,92,78,135,10,9,18,219,4,96,222,47,7,3,20,89,145,223,21,25,160,101,54,195,136,29,75,64,68,198,206,109,86,150,49,74,95,115,183,100,191,210,37,32,216,141,67,214,204,106,165,5,108,87,227,196,171,69,118,205,217,125,22,158,99,98,52,53,17,55,104,65,105,127,40,76,229,119,133,110,16,153,151,112,159,184,14,45,43,15,137,192,124,220,167,120,189,201,215,23,140,42,146,162,200,199,12,13,24,83,123,147,173,193,226,209,182,19,116,62,71,82,161,93,88,34,27,107,26,61,77,143,144,35,156,30,177,63,224,163,194,51,28,56,155,31,0